(set-logic ALL)
(set-option :produce-models true)
(declare-sort BoundSet 0)
(declare-sort UnboundSet 0)
(set-option :finite-model-find true)
(declare-fun IsBrown (BoundSet) Bool)
(declare-fun IsPersuing (BoundSet) Bool)
(declare-fun IsAcrossGrass (BoundSet) Bool)
(declare-fun IsThrown (BoundSet) Bool)
(declare-fun IsGoesTo (BoundSet) Bool)
(declare-fun IsVet (BoundSet) Bool)
(assert (not (=> (exists ((a BoundSet)) (exists ((b BoundSet)) (and (IsBrown a) (and (IsPersuing a) (and (IsAcrossGrass a) (IsThrown b)))))) (exists ((c BoundSet)) (exists ((b BoundSet)) (and (IsGoesTo b) (IsVet c)))))))
(check-sat)
(get-model)